p cnf 14 8
-14 -5 5 14 0
-3 1 2 3 4 5 6 7 8 9 10 11 13 14 0
-6 1 4 6 9 10 11 13 0
-9 -1 -7 -4 -2 -12 1 2 4 6 7 8 9 12 0
-12 12 0
-8 -13 -9 -4 2 4 5 7 8 9 10 13 14 0
-3 1 3 6 0
-7 -14 -13 -4 -1 -3 -12 -9 -10 -11 1 3 4 5 6 7 9 10 11 12 13 14 0
